584897
584897
559948
559948
559501
559501
558336
556542
556542
551146
551146
547158
537483
537483
537483
537483
537483
534882
534882
532498
519526
519526
519526
518385
518385
510425
510425
510425
510425
510425
510425
510425
510425
507760
507760
506718
502579
501838
488508
488508
484133
484133
484133
484133
484133
484133
475861
475861
475861
475861
475861
475861
475861
473993
472138
469111
459941
459941
459941
459941
459941
459941
452402
452402
452402
452402
452402
452402
449020
449020
424295
424295
424295
424295
424295
424295
424295
424295
424295
424295
424295
424295
424295
424295
424295
424295
424295
423653
423181
414727
414727
414727
414727
414727
414727
414727
414727
414727
414727
408276
